nLocations = 20;
nCities = 32;
nTypes = 3;

p = [11 8 39 1 12 18 29 9 38 15 17 4 8 24 11 18 3 17 17 25 2 23 40 9 40 10 5 12 7 15 11 16];
posCities = [[6 9] [15 0] [17 15] [24 19] [16 14] [18 22] [1 8] [19 0] [19 24] [3 8] [12 21] [4 16] [21 0] [4 19] [4 18] [12 5] [16 1] [11 15] [24 14] [19 17] [20 7] [5 23] [4 5] [26 13] [25 23] [19 14] [8 25] [18 14] [10 20] [7 8] [25 25] [2 26]];
posLocations = [[25 14] [19 15] [21 14] [21 26] [9 18] [11 2] [17 22] [2 15] [5 18] [23 10] [0 11] [2 12] [24 23] [25 18] [13 6] [20 23] [3 0] [15 8] [22 6] [18 9]];

d_city = [1 10 18];
cap = [11 73 26];
cost = [48 15 32];

d_center = 2.1;
